(set-logic QF_S)
(declare-fun var0 () String)
(assert (str.in.re var0 (re.++ (re.+ (re.union (str.to.re "000") (str.to.re "111"))) (re.++ (re.+ (re.union (str.to.re "22") (str.to.re "3"))) (re.++ (re.union (re.+ (str.to.re "4")) (re.+ (str.to.re "555"))) (re.++ (re.+ (re.union (str.to.re "66") (str.to.re "7"))) (re.++ (re.+ (re.+ (str.to.re "88"))) (re.++ (re.+ (re.+ (str.to.re "99"))) (re.++ (re.+ (re.* (str.to.re "aaa"))) (re.++ (re.union (re.union (str.to.re "bb") (str.to.re "ccc")) (re.union (str.to.re "d") (str.to.re "e"))) (re.++ (re.+ (re.* (str.to.re "ff"))) (re.++ (re.union (re.+ (str.to.re "gg")) (re.+ (str.to.re "h"))) (re.++ (re.+ (re.+ (str.to.re "i"))) (re.++ (re.union (re.+ (str.to.re "jj")) (re.+ (str.to.re "k"))) (re.++ (re.* (re.* (str.to.re "lll"))) (re.++ (re.union (re.* (str.to.re "mm")) (re.* (str.to.re "nn"))) (re.++ (re.union (re.+ (str.to.re "oo")) (re.+ (str.to.re "p"))) (re.++ (re.union (re.union (str.to.re "q") (str.to.re "rrr")) (re.union (str.to.re "s") (str.to.re "ttt"))) (re.++ (re.* (re.* (str.to.re "uu"))) (re.++ (re.+ (re.* (str.to.re "v"))) (re.++ (re.union (re.union (str.to.re "www") (str.to.re "xx")) (re.union (str.to.re "yy") (str.to.re "zzz"))) (re.++ (re.* (re.* (str.to.re "AAA"))) (re.++ (re.union (re.+ (str.to.re "BB")) (re.+ (str.to.re "CC"))) (re.++ (re.union (re.* (str.to.re "DDD")) (re.* (str.to.re "EE"))) (re.++ (re.* (re.+ (str.to.re "FFF"))) (re.++ (re.* (re.+ (str.to.re "GGG"))) (re.++ (re.union (re.* (str.to.re "HH")) (re.* (str.to.re "III"))) (re.++ (re.union (re.union (str.to.re "JJ") (str.to.re "KK")) (re.union (str.to.re "LL") (str.to.re "MM"))) (re.++ (re.* (re.union (str.to.re "NN") (str.to.re "O"))) (re.++ (re.+ (re.+ (str.to.re "PPP"))) (re.++ (re.union (re.union (str.to.re "QQ") (str.to.re "RR")) (re.union (str.to.re "SS") (str.to.re "T"))) (re.++ (re.union (re.union (str.to.re "UUU") (str.to.re "VV")) (re.union (str.to.re "WWW") (str.to.re "XX"))) (re.++ (re.* (re.union (str.to.re "YYY") (str.to.re "ZZ"))) (re.++ (re.union (re.union (str.to.re "!") (str.to.re """""")) (re.union (str.to.re "#") (str.to.re "$$$"))) (re.++ (re.+ (re.union (str.to.re "%%") (str.to.re "&&"))) (re.++ (re.+ (re.+ (str.to.re "'"))) (re.++ (re.union (re.* (str.to.re "(")) (re.* (str.to.re ")))"))) (re.++ (re.* (re.union (str.to.re "*") (str.to.re "++"))) (re.++ (re.+ (re.* (str.to.re ",,"))) (re.++ (re.union (re.+ (str.to.re "---")) (re.+ (str.to.re "..."))) (re.++ (re.union (re.* (str.to.re "/")) (re.* (str.to.re ":"))) (re.++ (re.+ (re.* (str.to.re ";;;"))) (re.++ (re.union (re.+ (str.to.re "<<")) (re.+ (str.to.re "="))) (re.++ (re.* (re.union (str.to.re ">") (str.to.re "??"))) (re.++ (re.union (re.* (str.to.re "@@")) (re.* (str.to.re "["))) (re.++ (re.union (re.* (str.to.re "\\\\")) (re.* (str.to.re "]]"))) (re.++ (re.union (re.+ (str.to.re "^")) (re.+ (str.to.re "_"))) (re.++ (re.+ (re.* (str.to.re "```"))) (re.++ (re.+ (re.* (str.to.re "{"))) (re.++ (re.* (re.* (str.to.re "|"))) (re.++ (re.+ (re.+ (str.to.re "}"))) (re.++ (re.union (re.* (str.to.re "~~~")) (re.* (str.to.re "0"))) (re.+ (re.* (str.to.re "1")))))))))))))))))))))))))))))))))))))))))))))))))))))))
(check-sat)